50
1 0 9
2 0 3
2 1 4
3 0 6
3 1 2
3 2 4
4 0 2
4 1 1
4 2 5
4 3 5
5 0 4
5 1 4
5 2 7
5 3 6
5 4 7
6 0 7
6 1 7
6 2 5
6 3 9
6 4 4
6 5 2
7 0 1
7 1 2
7 2 9
7 3 3
7 4 3
7 5 3
7 6 10
8 0 9
8 1 8
8 2 5
8 3 3
8 4 6
8 5 10
8 6 3
8 7 2
9 0 6
9 1 4
9 2 4
9 3 5
9 4 4
9 5 8
9 6 6
9 7 9
9 8 8
10 0 4
10 1 6
10 2 7
10 3 9
10 4 1
10 5 5
10 6 6
10 7 10
10 8 6
10 9 5
11 0 2
11 1 7
11 2 9
11 3 10
11 4 5
11 5 6
11 6 2
11 7 7
11 8 9
11 9 10
11 10 2
12 0 2
12 1 4
12 2 8
12 3 8
12 4 2
12 5 2
12 6 6
12 7 4
12 8 1
12 9 3
12 10 5
12 11 9
13 0 8
13 1 5
13 2 6
13 3 5
13 4 10
13 5 10
13 6 9
13 7 7
13 8 5
13 9 5
13 10 3
13 11 4
13 12 5
14 0 3
14 1 4
14 2 1
14 3 8
14 4 7
14 5 9
14 6 3
14 7 4
14 8 9
14 9 3
14 10 2
14 11 5
14 12 2
14 13 7
15 0 7
15 1 8
15 2 4
15 3 8
15 4 9
15 5 2
15 6 3
15 7 7
15 8 6
15 9 9
15 10 6
15 11 7
15 12 3
15 13 10
15 14 3
16 0 4
16 1 3
16 2 3
16 3 9
16 4 2
16 5 10
16 6 4
16 7 2
16 8 1
16 9 7
16 10 3
16 11 5
16 12 1
16 13 6
16 14 3
16 15 6
17 0 1
17 1 2
17 2 8
17 3 9
17 4 8
17 5 2
17 6 4
17 7 3
17 8 9
17 9 2
17 10 6
17 11 2
17 12 5
17 13 2
17 14 3
17 15 4
17 16 2
18 0 8
18 1 5
18 2 6
18 3 3
18 4 5
18 5 5
18 6 9
18 7 7
18 8 3
18 9 1
18 10 3
18 11 8
18 12 1
18 13 5
18 14 7
18 15 3
18 16 10
18 17 8
19 0 1
19 1 2
19 2 8
19 3 3
19 4 2
19 5 10
19 6 3
19 7 10
19 8 1
19 9 10
19 10 7
19 11 8
19 12 7
19 13 1
19 14 7
19 15 7
19 16 3
19 17 7
19 18 1
20 0 1
20 1 8
20 2 9
20 3 2
20 4 3
20 5 5
20 6 8
20 7 3
20 8 2
20 9 8
20 10 2
20 11 2
20 12 7
20 13 10
20 14 4
20 15 5
20 16 3
20 17 2
20 18 5
20 19 8
21 0 8
21 1 6
21 2 7
21 3 2
21 4 2
21 5 9
21 6 10
21 7 9
21 8 1
21 9 5
21 10 4
21 11 2
21 12 4
21 13 4
21 14 9
21 15 2
21 16 9
21 17 8
21 18 6
21 19 8
21 20 2
22 0 3
22 1 6
22 2 2
22 3 4
22 4 2
22 5 1
22 6 10
22 7 7
22 8 9
22 9 7
22 10 4
22 11 1
22 12 2
22 13 8
22 14 2
22 15 1
22 16 9
22 17 2
22 18 3
22 19 3
22 20 4
22 21 1
23 0 10
23 1 2
23 2 4
23 3 10
23 4 2
23 5 8
23 6 2
23 7 2
23 8 1
23 9 2
23 10 4
23 11 5
23 12 2
23 13 10
23 14 8
23 15 8
23 16 7
23 17 3
23 18 4
23 19 4
23 20 5
23 21 7
23 22 1
24 0 9
24 1 1
24 2 4
24 3 2
24 4 1
24 5 7
24 6 10
24 7 5
24 8 1
24 9 3
24 10 6
24 11 10
24 12 8
24 13 4
24 14 3
24 15 3
24 16 9
24 17 7
24 18 6
24 19 9
24 20 7
24 21 4
24 22 7
24 23 2
25 0 1
25 1 8
25 2 7
25 3 9
25 4 10
25 5 2
25 6 2
25 7 7
25 8 3
25 9 3
25 10 4
25 11 10
25 12 3
25 13 1
25 14 2
25 15 6
25 16 3
25 17 7
25 18 9
25 19 5
25 20 4
25 21 9
25 22 6
25 23 10
25 24 10
26 0 1
26 1 1
26 2 5
26 3 10
26 4 9
26 5 5
26 6 1
26 7 1
26 8 8
26 9 5
26 10 8
26 11 3
26 12 10
26 13 1
26 14 7
26 15 3
26 16 8
26 17 6
26 18 2
26 19 5
26 20 7
26 21 9
26 22 8
26 23 1
26 24 2
26 25 5
27 0 4
27 1 8
27 2 1
27 3 9
27 4 3
27 5 2
27 6 3
27 7 3
27 8 3
27 9 6
27 10 4
27 11 10
27 12 4
27 13 6
27 14 9
27 15 10
27 16 4
27 17 6
27 18 2
27 19 4
27 20 1
27 21 8
27 22 6
27 23 10
27 24 4
27 25 1
27 26 10
28 0 3
28 1 3
28 2 1
28 3 2
28 4 1
28 5 10
28 6 10
28 7 1
28 8 3
28 9 4
28 10 6
28 11 1
28 12 8
28 13 10
28 14 8
28 15 3
28 16 8
28 17 3
28 18 1
28 19 5
28 20 6
28 21 2
28 22 2
28 23 1
28 24 7
28 25 8
28 26 7
28 27 9
29 0 4
29 1 3
29 2 8
29 3 5
29 4 2
29 5 4
29 6 4
29 7 5
29 8 10
29 9 6
29 10 3
29 11 8
29 12 5
29 13 5
29 14 8
29 15 7
29 16 10
29 17 7
29 18 10
29 19 5
29 20 10
29 21 6
29 22 5
29 23 6
29 24 10
29 25 5
29 26 7
29 27 4
29 28 3
30 0 7
30 1 1
30 2 8
30 3 8
30 4 1
30 5 4
30 6 8
30 7 7
30 8 3
30 9 1
30 10 1
30 11 6
30 12 6
30 13 4
30 14 10
30 15 1
30 16 8
30 17 7
30 18 10
30 19 10
30 20 6
30 21 5
30 22 5
30 23 1
30 24 2
30 25 10
30 26 8
30 27 8
30 28 2
30 29 7
31 0 1
31 1 3
31 2 6
31 3 9
31 4 4
31 5 9
31 6 4
31 7 1
31 8 4
31 9 9
31 10 1
31 11 4
31 12 1
31 13 9
31 14 6
31 15 1
31 16 8
31 17 10
31 18 2
31 19 2
31 20 9
31 21 4
31 22 4
31 23 6
31 24 9
31 25 1
31 26 1
31 27 2
31 28 4
31 29 6
31 30 1
32 0 8
32 1 10
32 2 7
32 3 2
32 4 1
32 5 6
32 6 6
32 7 8
32 8 10
32 9 4
32 10 3
32 11 8
32 12 7
32 13 7
32 14 9
32 15 3
32 16 7
32 17 3
32 18 7
32 19 5
32 20 5
32 21 1
32 22 6
32 23 7
32 24 10
32 25 7
32 26 5
32 27 5
32 28 10
32 29 3
32 30 9
32 31 5
33 0 5
33 1 1
33 2 2
33 3 8
33 4 2
33 5 10
33 6 10
33 7 8
33 8 2
33 9 8
33 10 3
33 11 7
33 12 10
33 13 10
33 14 7
33 15 6
33 16 3
33 17 5
33 18 2
33 19 10
33 20 7
33 21 9
33 22 10
33 23 2
33 24 6
33 25 10
33 26 7
33 27 6
33 28 1
33 29 6
33 30 1
33 31 2
33 32 1
34 0 3
34 1 10
34 2 3
34 3 9
34 4 8
34 5 3
34 6 2
34 7 7
34 8 3
34 9 1
34 10 1
34 11 3
34 12 1
34 13 3
34 14 2
34 15 10
34 16 3
34 17 5
34 18 7
34 19 9
34 20 10
34 21 8
34 22 4
34 23 4
34 24 2
34 25 6
34 26 10
34 27 5
34 28 8
34 29 1
34 30 3
34 31 3
34 32 2
34 33 8
35 0 1
35 1 10
35 2 9
35 3 9
35 4 5
35 5 3
35 6 8
35 7 1
35 8 6
35 9 3
35 10 5
35 11 9
35 12 8
35 13 9
35 14 4
35 15 1
35 16 10
35 17 8
35 18 2
35 19 1
35 20 8
35 21 3
35 22 4
35 23 8
35 24 8
35 25 10
35 26 6
35 27 6
35 28 3
35 29 9
35 30 1
35 31 6
35 32 1
35 33 10
35 34 5
36 0 1
36 1 10
36 2 5
36 3 9
36 4 1
36 5 1
36 6 2
36 7 8
36 8 10
36 9 5
36 10 8
36 11 8
36 12 5
36 13 7
36 14 1
36 15 9
36 16 4
36 17 6
36 18 2
36 19 7
36 20 10
36 21 4
36 22 10
36 23 9
36 24 4
36 25 10
36 26 7
36 27 9
36 28 1
36 29 4
36 30 10
36 31 1
36 32 10
36 33 7
36 34 3
36 35 6
37 0 7
37 1 9
37 2 9
37 3 10
37 4 3
37 5 7
37 6 3
37 7 7
37 8 10
37 9 7
37 10 8
37 11 4
37 12 10
37 13 5
37 14 8
37 15 9
37 16 9
37 17 5
37 18 2
37 19 5
37 20 3
37 21 1
37 22 2
37 23 2
37 24 6
37 25 5
37 26 2
37 27 5
37 28 4
37 29 1
37 30 4
37 31 9
37 32 10
37 33 6
37 34 6
37 35 5
37 36 8
38 0 6
38 1 5
38 2 1
38 3 1
38 4 4
38 5 8
38 6 9
38 7 6
38 8 9
38 9 3
38 10 7
38 11 7
38 12 8
38 13 2
38 14 3
38 15 10
38 16 6
38 17 1
38 18 9
38 19 1
38 20 9
38 21 10
38 22 8
38 23 9
38 24 3
38 25 7
38 26 10
38 27 8
38 28 8
38 29 8
38 30 1
38 31 2
38 32 5
38 33 10
38 34 10
38 35 1
38 36 10
38 37 2
39 0 9
39 1 1
39 2 6
39 3 8
39 4 2
39 5 4
39 6 3
39 7 8
39 8 9
39 9 5
39 10 10
39 11 4
39 12 1
39 13 2
39 14 1
39 15 2
39 16 10
39 17 6
39 18 8
39 19 6
39 20 3
39 21 9
39 22 10
39 23 4
39 24 1
39 25 4
39 26 7
39 27 1
39 28 1
39 29 7
39 30 9
39 31 5
39 32 6
39 33 9
39 34 7
39 35 8
39 36 1
39 37 8
39 38 9
40 0 8
40 1 7
40 2 9
40 3 2
40 4 10
40 5 2
40 6 7
40 7 8
40 8 4
40 9 2
40 10 2
40 11 5
40 12 4
40 13 1
40 14 7
40 15 10
40 16 3
40 17 8
40 18 9
40 19 2
40 20 8
40 21 8
40 22 6
40 23 3
40 24 4
40 25 8
40 26 4
40 27 7
40 28 1
40 29 5
40 30 7
40 31 2
40 32 7
40 33 7
40 34 6
40 35 3
40 36 2
40 37 10
40 38 1
40 39 2
41 0 4
41 1 2
41 2 5
41 3 3
41 4 10
41 5 5
41 6 5
41 7 10
41 8 5
41 9 6
41 10 2
41 11 6
41 12 1
41 13 10
41 14 9
41 15 3
41 16 9
41 17 2
41 18 3
41 19 1
41 20 10
41 21 8
41 22 7
41 23 8
41 24 8
41 25 5
41 26 5
41 27 5
41 28 8
41 29 1
41 30 7
41 31 6
41 32 5
41 33 8
41 34 9
41 35 3
41 36 10
41 37 5
41 38 10
41 39 2
41 40 1
42 0 1
42 1 2
42 2 2
42 3 6
42 4 5
42 5 1
42 6 4
42 7 8
42 8 1
42 9 1
42 10 6
42 11 1
42 12 8
42 13 4
42 14 9
42 15 10
42 16 2
42 17 7
42 18 2
42 19 9
42 20 9
42 21 2
42 22 7
42 23 2
42 24 3
42 25 8
42 26 8
42 27 10
42 28 6
42 29 6
42 30 5
42 31 8
42 32 6
42 33 6
42 34 8
42 35 1
42 36 9
42 37 10
42 38 2
42 39 2
42 40 8
42 41 2
43 0 8
43 1 9
43 2 10
43 3 9
43 4 4
43 5 1
43 6 3
43 7 8
43 8 4
43 9 9
43 10 1
43 11 4
43 12 9
43 13 2
43 14 8
43 15 8
43 16 8
43 17 5
43 18 1
43 19 10
43 20 10
43 21 3
43 22 3
43 23 2
43 24 6
43 25 4
43 26 6
43 27 10
43 28 5
43 29 8
43 30 7
43 31 10
43 32 3
43 33 1
43 34 5
43 35 1
43 36 5
43 37 8
43 38 4
43 39 4
43 40 6
43 41 3
43 42 8
44 0 9
44 1 2
44 2 3
44 3 7
44 4 4
44 5 3
44 6 9
44 7 5
44 8 1
44 9 6
44 10 8
44 11 2
44 12 5
44 13 1
44 14 2
44 15 10
44 16 1
44 17 6
44 18 4
44 19 2
44 20 3
44 21 5
44 22 4
44 23 9
44 24 3
44 25 10
44 26 9
44 27 5
44 28 3
44 29 3
44 30 6
44 31 9
44 32 3
44 33 6
44 34 2
44 35 9
44 36 3
44 37 10
44 38 8
44 39 1
44 40 2
44 41 4
44 42 4
44 43 9
45 0 1
45 1 10
45 2 6
45 3 7
45 4 10
45 5 2
45 6 9
45 7 3
45 8 10
45 9 3
45 10 2
45 11 9
45 12 3
45 13 9
45 14 7
45 15 5
45 16 9
45 17 4
45 18 3
45 19 10
45 20 9
45 21 9
45 22 6
45 23 7
45 24 6
45 25 3
45 26 9
45 27 2
45 28 7
45 29 9
45 30 2
45 31 4
45 32 8
45 33 4
45 34 10
45 35 3
45 36 7
45 37 2
45 38 6
45 39 2
45 40 10
45 41 5
45 42 10
45 43 9
45 44 10
46 0 5
46 1 4
46 2 6
46 3 1
46 4 8
46 5 10
46 6 9
46 7 6
46 8 6
46 9 10
46 10 6
46 11 6
46 12 10
46 13 10
46 14 4
46 15 9
46 16 7
46 17 2
46 18 5
46 19 4
46 20 9
46 21 7
46 22 4
46 23 7
46 24 7
46 25 6
46 26 5
46 27 10
46 28 1
46 29 4
46 30 9
46 31 8
46 32 1
46 33 9
46 34 4
46 35 9
46 36 4
46 37 7
46 38 10
46 39 2
46 40 8
46 41 5
46 42 10
46 43 7
46 44 6
46 45 5
47 0 4
47 1 2
47 2 3
47 3 3
47 4 10
47 5 10
47 6 6
47 7 1
47 8 3
47 9 9
47 10 6
47 11 8
47 12 3
47 13 7
47 14 8
47 15 3
47 16 5
47 17 1
47 18 3
47 19 2
47 20 9
47 21 6
47 22 1
47 23 4
47 24 1
47 25 5
47 26 2
47 27 9
47 28 6
47 29 3
47 30 7
47 31 10
47 32 9
47 33 6
47 34 5
47 35 9
47 36 2
47 37 2
47 38 1
47 39 4
47 40 1
47 41 1
47 42 3
47 43 1
47 44 4
47 45 6
47 46 5
48 0 5
48 1 8
48 2 5
48 3 3
48 4 3
48 5 3
48 6 6
48 7 3
48 8 4
48 9 8
48 10 1
48 11 5
48 12 3
48 13 10
48 14 10
48 15 5
48 16 3
48 17 7
48 18 2
48 19 9
48 20 4
48 21 3
48 22 6
48 23 10
48 24 6
48 25 8
48 26 5
48 27 5
48 28 2
48 29 10
48 30 7
48 31 2
48 32 5
48 33 4
48 34 2
48 35 4
48 36 8
48 37 8
48 38 1
48 39 5
48 40 8
48 41 3
48 42 8
48 43 5
48 44 6
48 45 5
48 46 9
48 47 2
49 0 1
49 1 3
49 2 4
49 3 7
49 4 2
49 5 10
49 6 5
49 7 3
49 8 5
49 9 6
49 10 1
49 11 10
49 12 1
49 13 4
49 14 4
49 15 4
49 16 9
49 17 10
49 18 8
49 19 5
49 20 2
49 21 10
49 22 7
49 23 5
49 24 8
49 25 5
49 26 5
49 27 5
49 28 8
49 29 4
49 30 2
49 31 1
49 32 6
49 33 9
49 34 4
49 35 10
49 36 7
49 37 5
49 38 8
49 39 7
49 40 3
49 41 4
49 42 9
49 43 2
49 44 6
49 45 3
49 46 1
49 47 3
49 48 8
